g3 1 1 0	# problem ms1
 20 0 1 0 0	# vars, constraints, objectives, ranges, eqns
 0 1	# nonlinear constraints, objectives
 0 0	# network constraints: nonlinear, linear
 0 20 0	# nonlinear vars in constraints, objectives, both
 0 0 0 1	# linear network variables; functions; arith, flags
 0 0 0 0 0	# discrete variables: binary, integer, nonlinear (b,c,o)
 0 20	# nonzeros in Jacobian, gradients
 0 0	# max name lengths: constraints, variables
 0 0 0 0 45	# common exprs: b,c,o,c1,o1
V20 0 1
o39
o0
o5
o1
v1
v0
n2
o5
o1
v11
v10
n2
V21 0 1
o39
o0
o5
o1
v2
v0
n2
o5
o1
v12
v10
n2
V22 0 1
o39
o0
o5
o1
v2
v1
n2
o5
o1
v12
v11
n2
V23 0 1
o39
o0
o5
o1
v3
v0
n2
o5
o1
v13
v10
n2
V24 0 1
o39
o0
o5
o1
v3
v1
n2
o5
o1
v13
v11
n2
V25 0 1
o39
o0
o5
o1
v3
v2
n2
o5
o1
v13
v12
n2
V26 0 1
o39
o0
o5
o1
v4
v0
n2
o5
o1
v14
v10
n2
V27 0 1
o39
o0
o5
o1
v4
v1
n2
o5
o1
v14
v11
n2
V28 0 1
o39
o0
o5
o1
v4
v2
n2
o5
o1
v14
v12
n2
V29 0 1
o39
o0
o5
o1
v4
v3
n2
o5
o1
v14
v13
n2
V30 0 1
o39
o0
o5
o1
v5
v0
n2
o5
o1
v15
v10
n2
V31 0 1
o39
o0
o5
o1
v5
v1
n2
o5
o1
v15
v11
n2
V32 0 1
o39
o0
o5
o1
v5
v2
n2
o5
o1
v15
v12
n2
V33 0 1
o39
o0
o5
o1
v5
v3
n2
o5
o1
v15
v13
n2
V34 0 1
o39
o0
o5
o1
v5
v4
n2
o5
o1
v15
v14
n2
V35 0 1
o39
o0
o5
o1
v6
v0
n2
o5
o1
v16
v10
n2
V36 0 1
o39
o0
o5
o1
v6
v1
n2
o5
o1
v16
v11
n2
V37 0 1
o39
o0
o5
o1
v6
v2
n2
o5
o1
v16
v12
n2
V38 0 1
o39
o0
o5
o1
v6
v3
n2
o5
o1
v16
v13
n2
V39 0 1
o39
o0
o5
o1
v6
v4
n2
o5
o1
v16
v14
n2
V40 0 1
o39
o0
o5
o1
v6
v5
n2
o5
o1
v16
v15
n2
V41 0 1
o39
o0
o5
o1
v7
v0
n2
o5
o1
v17
v10
n2
V42 0 1
o39
o0
o5
o1
v7
v1
n2
o5
o1
v17
v11
n2
V43 0 1
o39
o0
o5
o1
v7
v2
n2
o5
o1
v17
v12
n2
V44 0 1
o39
o0
o5
o1
v7
v3
n2
o5
o1
v17
v13
n2
V45 0 1
o39
o0
o5
o1
v7
v4
n2
o5
o1
v17
v14
n2
V46 0 1
o39
o0
o5
o1
v7
v5
n2
o5
o1
v17
v15
n2
V47 0 1
o39
o0
o5
o1
v7
v6
n2
o5
o1
v17
v16
n2
V48 0 1
o39
o0
o5
o1
v8
v0
n2
o5
o1
v18
v10
n2
V49 0 1
o39
o0
o5
o1
v8
v1
n2
o5
o1
v18
v11
n2
V50 0 1
o39
o0
o5
o1
v8
v2
n2
o5
o1
v18
v12
n2
V51 0 1
o39
o0
o5
o1
v8
v3
n2
o5
o1
v18
v13
n2
V52 0 1
o39
o0
o5
o1
v8
v4
n2
o5
o1
v18
v14
n2
V53 0 1
o39
o0
o5
o1
v8
v5
n2
o5
o1
v18
v15
n2
V54 0 1
o39
o0
o5
o1
v8
v6
n2
o5
o1
v18
v16
n2
V55 0 1
o39
o0
o5
o1
v8
v7
n2
o5
o1
v18
v17
n2
V56 0 1
o39
o0
o5
o1
v9
v0
n2
o5
o1
v19
v10
n2
V57 0 1
o39
o0
o5
o1
v9
v1
n2
o5
o1
v19
v11
n2
V58 0 1
o39
o0
o5
o1
v9
v2
n2
o5
o1
v19
v12
n2
V59 0 1
o39
o0
o5
o1
v9
v3
n2
o5
o1
v19
v13
n2
V60 0 1
o39
o0
o5
o1
v9
v4
n2
o5
o1
v19
v14
n2
V61 0 1
o39
o0
o5
o1
v9
v5
n2
o5
o1
v19
v15
n2
V62 0 1
o39
o0
o5
o1
v9
v6
n2
o5
o1
v19
v16
n2
V63 0 1
o39
o0
o5
o1
v9
v7
n2
o5
o1
v19
v17
n2
V64 0 1
o39
o0
o5
o1
v9
v8
n2
o5
o1
v19
v18
n2
O0 0
o54
45
o5
o1
n0.49
v20
n2
o5
o1
n1.74
v21
n2
o5
o1
n1.47
v22
n2
o5
o1
n2.26
v23
n2
o5
o1
n2.08
v24
n2
o5
o1
n2.67
v25
n2
o5
o1
n2.14
v26
n2
o5
o1
n1.84
v27
n2
o5
o1
n0.84
v28
n2
o5
o1
n2.67
v29
n2
o5
o1
n1.85
v30
n2
o5
o1
n1.39
v31
n2
o5
o1
n1.32
v32
n2
o5
o1
n1.92
v33
n2
o5
o1
n1.39
v34
n2
o5
o1
n1.62
v35
n2
o5
o1
n1.43
v36
n2
o5
o1
n1.7
v37
n2
o5
o1
n1.74
v38
n2
o5
o1
n1.39
v39
n2
o5
o1
n1.48
v40
n2
o5
o1
n0.79
v41
n2
o5
o1
n0.82
v42
n2
o5
o1
n1.59
v43
n2
o5
o1
n1.96
v44
n2
o5
o1
n2.04
v45
n2
o5
o1
n1.78
v46
n2
o5
o1
n1.66
v47
n2
o5
o1
n1.87
v48
n2
o5
o1
n1.69
v49
n2
o5
o1
n1.66
v50
n2
o5
o1
n1.76
v51
n2
o5
o1
n2.01
v52
n2
o5
o1
n1.47
v53
n2
o5
o1
n1.84
v54
n2
o5
o1
n1.68
v55
n2
o5
o1
n1.85
v56
n2
o5
o1
n1.5
v57
n2
o5
o1
n1.67
v58
n2
o5
o1
n2.28
v59
n2
o5
o1
n1.38
v60
n2
o5
o1
n1.11
v61
n2
o5
o1
n1.06
v62
n2
o5
o1
n2.11
v63
n2
o5
o1
n2.97
v64
n2
b
0 -5 5
0 -5 5
0 -5 5
0 -5 5
0 -5 5
0 -5 5
0 -5 5
0 -5 5
0 -5 5
0 -5 5
0 -5 5
0 -5 5
0 -5 5
0 -5 5
0 -5 5
0 -5 5
0 -5 5
0 -5 5
0 -5 5
0 -5 5
k19
0
0
0
0
0
0
0
0
0
0
0
0
0
0
0
0
0
0
0
G0 20
0 0
1 0
2 0
3 0
4 0
5 0
6 0
7 0
8 0
9 0
10 0
11 0
12 0
13 0
14 0
15 0
16 0
17 0
18 0
19 0
